494
328
158
284
252
5
445
180
244
54
231
80
238
25
162
273
264
90
183
108
411
324
298
127
157
348
156
368
236
237
474
266
479
481
157
159
323
91
278
204
258
401
38
133
184
56
40
406
213
160
495
258
220
336
224
114
13
313
3
266
418
374
112
351
192
307
356
394
477
209
161
453
102
416
481
52
37
321
181
278
391
347
60
388
159
69
371
16
244
441
350
113
443
109
290
368
212
12
56
330
